p cnf 123 443
3 -1 0
3 2 0
1 -2 -3 0
3 -4 -5 0
-3 4 -5 0
3 4 5 0
-3 -4 5 0
7 -5 0
7 -6 0
5 6 -7 0
-10 -8 0
-10 -9 0
8 9 10 0
12 -10 0
12 -11 0
10 11 -12 0
-15 13 0
-15 -14 0
-13 14 15 0
-16 -9 0
-16 -8 0
9 8 16 0
17 -15 0
17 -16 0
15 16 -17 0
12 17 -18 0
-12 -17 -18 0
12 -17 18 0
-12 17 18 0
6 -9 -19 0
-6 9 -19 0
6 9 19 0
-6 -9 19 0
-20 -19 0
-20 4 0
19 -4 20 0
-21 9 0
-21 -8 0
-9 8 21 0
17 -21 -22 0
-17 21 -22 0
17 21 22 0
-17 -21 22 0
-23 -1 0
-23 -16 0
1 16 23 0
8 9 -24 0
-8 -9 -24 0
8 -9 24 0
-8 9 24 0
-25 -23 0
-25 24 0
23 -24 25 0
-26 -22 0
-26 25 0
22 -25 26 0
-27 -10 0
-27 26 0
10 -26 27 0
-20 -27 -28 0
20 27 -28 0
-20 27 28 0
20 -27 28 0
-18 -28 -29 0
18 28 -29 0
-18 28 29 0
18 -28 29 0
7 -29 -30 0
-7 29 -30 0
7 29 30 0
-7 -29 30 0
-32 -31 0
-32 -19 0
31 19 32 0
-33 -32 0
-33 -16 0
32 16 33 0
-35 -34 0
-35 -2 0
34 2 35 0
-13 35 -36 0
13 -35 -36 0
-13 -35 36 0
13 35 36 0
-37 -35 0
-37 -3 0
35 3 37 0
38 36 0
38 -37 0
-36 37 -38 0
38 39 -40 0
-38 -39 -40 0
38 -39 40 0
-38 39 40 0
-33 40 -41 0
33 -40 -41 0
-33 -40 41 0
33 40 41 0
42 -4 0
42 -19 0
4 19 -42 0
-22 -42 -43 0
22 42 -43 0
-22 42 43 0
22 -42 43 0
44 4 0
44 26 0
-4 -26 -44 0
25 -5 -45 0
-25 5 -45 0
25 5 45 0
-25 -5 45 0
-46 -44 0
-46 45 0
44 -45 46 0
43 46 -47 0
-43 -46 -47 0
43 -46 47 0
-43 46 47 0
-48 -41 0
-48 -47 0
41 47 48 0
30 48 -49 0
-30 -48 -49 0
30 -48 49 0
-30 48 49 0
-50 23 0
-50 -34 0
-23 34 50 0
-51 50 0
-51 -1 0
-50 1 51 0
-52 14 0
-52 9 0
-14 -9 52 0
52 17 -53 0
-52 -17 -53 0
52 -17 53 0
-52 17 53 0
-54 8 0
-54 9 0
-8 -9 54 0
55 -53 0
55 -54 0
53 54 -55 0
-56 51 0
-56 55 0
-51 -55 56 0
-57 49 0
-57 -56 0
-49 56 57 0
58 9 0
58 42 0
-9 -42 -58 0
6 -37 -59 0
-6 37 -59 0
6 37 59 0
-6 -37 59 0
58 59 -60 0
-58 -59 -60 0
58 -59 60 0
-58 59 60 0
61 25 0
61 15 0
-25 -15 -61 0
-60 -61 -62 0
60 61 -62 0
-60 61 62 0
60 -61 62 0
3 62 -63 0
-3 -62 -63 0
3 -62 63 0
-3 62 63 0
-64 -6 0
-64 -52 0
6 52 64 0
-66 -13 0
-66 65 0
13 -65 66 0
-64 66 -67 0
64 -66 -67 0
-64 -66 67 0
64 66 67 0
-68 63 0
-68 -67 0
-63 67 68 0
-69 -4 0
-69 13 0
4 -13 69 0
-70 15 0
-70 -69 0
-15 69 70 0
-68 70 -71 0
68 -70 -71 0
-68 -70 71 0
68 70 71 0
72 11 0
72 69 0
-11 -69 -72 0
-72 -52 -73 0
72 52 -73 0
-72 52 73 0
72 -52 73 0
74 -42 0
74 54 0
42 -54 -74 0
75 -73 0
75 -74 0
73 74 -75 0
-77 76 0
-77 21 0
-76 -21 77 0
78 -66 0
78 77 0
66 -77 -78 0
-79 -78 0
-79 65 0
78 -65 79 0
80 35 0
80 22 0
-35 -22 -80 0
81 66 0
81 77 0
-66 -77 -81 0
-82 6 0
-82 16 0
-6 -16 82 0
83 81 0
83 82 0
-81 -82 -83 0
-84 -81 0
-84 -19 0
81 19 84 0
13 16 -85 0
-13 -16 -85 0
13 -16 85 0
-13 16 85 0
86 58 0
86 85 0
-58 -85 -86 0
84 -86 -87 0
-84 86 -87 0
84 86 87 0
-84 -86 87 0
88 -83 0
88 87 0
83 -87 -88 0
-89 80 0
-89 88 0
-80 -88 89 0
90 79 0
90 89 0
-79 -89 -90 0
81 60 -91 0
-81 -60 -91 0
81 -60 91 0
-81 60 91 0
91 -61 -92 0
-91 61 -92 0
91 61 92 0
-91 -61 92 0
-93 -77 0
-93 92 0
77 -92 93 0
-90 93 -94 0
90 -93 -94 0
-90 -93 94 0
90 93 94 0
95 -75 0
95 -94 0
75 94 -95 0
-96 8 0
-96 -69 0
-8 69 96 0
-97 -34 0
-97 19 0
34 -19 97 0
-12 -97 -98 0
12 97 -98 0
-12 97 98 0
12 -97 98 0
96 -98 -99 0
-96 98 -99 0
96 98 99 0
-96 -98 99 0
100 65 0
100 2 0
-65 -2 -100 0
101 -8 0
101 -100 0
8 100 -101 0
-102 -101 0
-102 -5 0
101 5 102 0
99 102 -103 0
-99 -102 -103 0
99 -102 103 0
-99 102 103 0
8 6 -104 0
-8 -6 -104 0
8 -6 104 0
-8 6 104 0
-105 64 0
-105 -4 0
-64 4 105 0
-106 104 0
-106 105 0
-104 -105 106 0
103 106 -107 0
-103 -106 -107 0
103 -106 107 0
-103 106 107 0
-95 107 -108 0
95 -107 -108 0
-95 -107 108 0
95 107 108 0
-109 71 0
-109 -108 0
-71 108 109 0
-110 58 0
-110 1 0
-58 -1 110 0
-111 -1 0
-111 -15 0
1 15 111 0
-111 -54 -112 0
111 54 -112 0
-111 54 112 0
111 -54 112 0
60 -78 -113 0
-60 78 -113 0
60 78 113 0
-60 -78 113 0
58 64 -114 0
-58 -64 -114 0
58 -64 114 0
-58 64 114 0
-113 114 -115 0
113 -114 -115 0
-113 -114 115 0
113 114 115 0
116 112 0
116 -115 0
-112 115 -116 0
110 -116 -117 0
-110 116 -117 0
110 116 117 0
-110 -116 117 0
118 109 0
118 -117 0
-109 117 -118 0
57 118 -119 0
-57 -118 -119 0
57 -118 119 0
-57 118 119 0
-120 -66 0
-120 16 0
66 -16 120 0
-21 1 -121 0
21 -1 -121 0
-21 -1 121 0
21 1 121 0
122 -120 0
122 -121 0
120 121 -122 0
123 -119 0
123 -122 0
119 122 -123 0
-17 41 120 -118 -31 0
100 24 38 -42 0
53 -11 0
-101 3 -85 -113 75 40 0
14 116 0
2 38 -119 62 46 0
-47 -68 -107 0
104 -48 -15 37 -69 -61 0
-91 -6 -112 111 -102 0
13 -30 -36 26 0
112 -16 -94 67 64 13 0
-26 -13 107 0
-43 29 -80 0
-7 -46 0
-1 -7 -30 86 -112 97 0
-80 -93 46 -70 -54 99 0
3 8 0
72 -120 108 -26 -68 25 0
-37 8 -72 123 0
-33 102 0
-113 43 96 -87 0
-107 62 0
69 -81 10 24 88 0
60 42 111 -2 -7 0
-77 -76 -4 0
-72 -45 11 -110 0
-81 106 0
103 -43 0
-16 22 -29 -76 -110 0
-71 97 90 -92 60 -102 0
63 -44 36 -95 79 65 0
108 79 121 -91 0
22 11 0
99 114 58 91 -80 108 0
103 -83 -31 0
-32 -102 58 116 -83 8 0
-109 90 31 0
-42 -54 73 -96 120 0
65 -7 99 0
-68 -47 -27 0
99 49 -92 0
24 23 68 64 18 -98 0
118 -37 19 -55 0
95 -89 35 -10 -106 85 0
-31 -38 67 -77 96 116 0
-97 -106 123 107 4 -25 0
-19 12 68 0
-114 84 -55 -121 -43 0
121 56 -60 66 0
-120 -94 -96 47 121 -113 0
53 -29 82 20 -102 3 0
3 -110 -87 -27 -37 0
-122 37 -107 0
-17 -21 0
13 -95 -62 -72 0
-116 14 -34 -27 1 -69 0
21 32 95 113 0
-95 93 -25 -30 -20 0
53 -26 55 -78 0
10 39 -111 11 0
98 115 51 -103 -1 0
54 -93 91 -77 0
-38 -91 -23 -67 -26 54 0
-11 -20 113 -58 -56 -75 0
6 -83 -46 74 18 0
-7 -10 58 38 0
-80 -33 0
-52 -103 17 -54 0
1 52 69 20 92 0
18 74 -82 -115 16 -87 0
-60 -45 -52 69 70 0
119 -69 22 11 0
-22 19 -104 -42 102 -63 0
-32 91 -117 62 0
123 0
